NAME : portcgen-30-31
COMMENT : portcgen N=30, seed=31
TYPE : TSP
DIMENSION : 30
EDGE_WEIGHT_TYPE : EUC_2D
NODE_COORD_SECTION
1 -79747 107377
2 -214222 -12265
3 -63390 -176110
4 36465 80351
5 -299564 -233830
6 80286 -182497
7 215296 -179744
8 -144174 180418
9 -30081 42924
10 -356236 -134814
11 -149800 -202421
12 -146616 -61923
13 14043 -430210
14 -116365 105163
15 -32966 50625
16 -269501 213125
17 441775 139123
18 -47505 230625
19 -7698 229673
20 173062 106062
21 170011 -209410
22 -231774 -139583
23 206926 -198823
24 50966 317697
25 -212625 84352
26 91865 -246255
27 118078 347901
28 -308799 -382472
29 -75481 -226728
30 73546 -5464
